
Gurobi 9.0.1 (linux64) logging started Thu Apr 30 09:15:11 2020

Gurobi Optimizer version 9.0.1 build v9.0.1rc0 (linux64)
Optimize a model with 4112 rows, 3890 columns and 45080 nonzeros
Model fingerprint: 0xdc533139
Variable types: 0 continuous, 3890 integer (3872 binary)
Coefficient statistics:
  Matrix range     [1e+00, 9e+00]
  Objective range  [3e+00, 1e+02]
  Bounds range     [1e+00, 1e+00]
  RHS range        [1e+00, 1e+00]

User MIP start produced solution with objective 671 (0.02s)
Loaded user MIP start with objective 671

Presolve removed 1959 rows and 1459 columns
Presolve time: 0.29s
Presolved: 2153 rows, 2431 columns, 32788 nonzeros
Variable types: 0 continuous, 2431 integer (2431 binary)

Root relaxation: objective 4.376452e+02, 1132 iterations, 0.14 seconds

    Nodes    |    Current Node    |     Objective Bounds      |     Work
 Expl Unexpl |  Obj  Depth IntInf | Incumbent    BestBd   Gap | It/Node Time

     0     0  437.64521    0  359  671.00000  437.64521  34.8%     -    0s
     0     0  467.74569    0  371  671.00000  467.74569  30.3%     -    1s
     0     0  467.75437    0  377  671.00000  467.75437  30.3%     -    1s
     0     0  475.55004    0  328  671.00000  475.55004  29.1%     -    1s
     0     0  475.77010    0  333  671.00000  475.77010  29.1%     -    1s
     0     0  481.85830    0  396  671.00000  481.85830  28.2%     -    2s
     0     0  482.95018    0  387  671.00000  482.95018  28.0%     -    2s
     0     0  482.97224    0  381  671.00000  482.97224  28.0%     -    2s
     0     0  486.49599    0  374  671.00000  486.49599  27.5%     -    2s
     0     0  486.76530    0  384  671.00000  486.76530  27.5%     -    3s
     0     0  486.81345    0  379  671.00000  486.81345  27.4%     -    3s
     0     0  486.82935    0  393  671.00000  486.82935  27.4%     -    3s
     0     0  488.80869    0  419  671.00000  488.80869  27.2%     -    3s
     0     0  489.13732    0  422  671.00000  489.13732  27.1%     -    3s
     0     0  489.20304    0  416  671.00000  489.20304  27.1%     -    3s
     0     0  489.21561    0  423  671.00000  489.21561  27.1%     -    3s
     0     0  490.07439    0  406  671.00000  490.07439  27.0%     -    3s
     0     0  490.13435    0  414  671.00000  490.13435  27.0%     -    3s
     0     0  491.21627    0  419  671.00000  491.21627  26.8%     -    3s
     0     0  491.29189    0  415  671.00000  491.29189  26.8%     -    4s
     0     0  491.30308    0  419  671.00000  491.30308  26.8%     -    4s
     0     0  492.24036    0  405  671.00000  492.24036  26.6%     -    4s
     0     0  492.45512    0  416  671.00000  492.45512  26.6%     -    4s
     0     0  492.47399    0  409  671.00000  492.47399  26.6%     -    4s
     0     0  492.55783    0  408  671.00000  492.55783  26.6%     -    4s
     0     0  492.57559    0  414  671.00000  492.57559  26.6%     -    4s
     0     0  492.90977    0  398  671.00000  492.90977  26.5%     -    4s
     0     0  493.03095    0  382  671.00000  493.03095  26.5%     -    4s
     0     0  493.03622    0  398  671.00000  493.03622  26.5%     -    4s
     0     0  493.38312    0  399  671.00000  493.38312  26.5%     -    5s
     0     0  493.41614    0  399  671.00000  493.41614  26.5%     -    5s
     0     0  493.42822    0  400  671.00000  493.42822  26.5%     -    5s
     0     0  494.50702    0  430  671.00000  494.50702  26.3%     -    5s
     0     0  494.52675    0  439  671.00000  494.52675  26.3%     -    5s
     0     0  495.07381    0  424  671.00000  495.07381  26.2%     -    5s
     0     0  495.29996    0  435  671.00000  495.29996  26.2%     -    5s
     0     0  495.30511    0  426  671.00000  495.30511  26.2%     -    5s
     0     0  495.51964    0  439  671.00000  495.51964  26.2%     -    5s
     0     0  495.52328    0  438  671.00000  495.52328  26.2%     -    5s
     0     0  496.28413    0  416  671.00000  496.28413  26.0%     -    5s
     0     0  496.30934    0  425  671.00000  496.30934  26.0%     -    6s
     0     0  496.49683    0  401  671.00000  496.49683  26.0%     -    6s
     0     0  496.49683    0  397  671.00000  496.49683  26.0%     -    6s
     0     0  496.55091    0  347  671.00000  496.55091  26.0%     -    7s
     0     0  496.55091    0  370  671.00000  496.55091  26.0%     -    7s
     0     0  496.55091    0  390  671.00000  496.55091  26.0%     -    8s
     0     0  496.55091    0  388  671.00000  496.55091  26.0%     -    8s
     0     0  496.55091    0  416  671.00000  496.55091  26.0%     -    8s
     0     0  496.55091    0  397  671.00000  496.55091  26.0%     -    8s
     0     0  496.55091    0  405  671.00000  496.55091  26.0%     -    8s
     0     0  496.55091    0  412  671.00000  496.55091  26.0%     -    8s
     0     0  496.55091    0  412  671.00000  496.55091  26.0%     -    8s
     0     0  496.98039    0  414  671.00000  496.98039  25.9%     -    8s
     0     0  496.98039    0  415  671.00000  496.98039  25.9%     -    8s
     0     0  498.01363    0  433  671.00000  498.01363  25.8%     -    9s
     0     0  498.63593    0  405  671.00000  498.63593  25.7%     -    9s
     0     0  498.87402    0  415  671.00000  498.87402  25.7%     -    9s
     0     0  498.92656    0  425  671.00000  498.92656  25.6%     -    9s
     0     0  498.93186    0  427  671.00000  498.93186  25.6%     -    9s
     0     0  499.43496    0  400  671.00000  499.43496  25.6%     -   10s
     0     0  499.55829    0  434  671.00000  499.55829  25.6%     -   10s
     0     0  499.57586    0  428  671.00000  499.57586  25.5%     -   10s
     0     0  499.72307    0  430  671.00000  499.72307  25.5%     -   10s
     0     0  499.72307    0  418  671.00000  499.72307  25.5%     -   10s
     0     2  499.84937    0  418  671.00000  499.84937  25.5%     -   11s
    90    72  614.42877    5  321  671.00000  513.16656  23.5%   222   15s
   249   201  660.00717   50  220  671.00000  521.73578  22.2%   172   20s
H  298   209                     652.0000000  521.82639  20.0%   169   21s
H  379   172                     612.0000000  525.95791  14.1%   164   24s
   402   197  596.76923   25  151  612.00000  525.95791  14.1%   169   25s
   513   247  582.01995   28  306  612.00000  526.97264  13.9%   156   30s
   537   263  555.83164   10  435  612.00000  526.97264  13.9%   149   35s
   542   269  547.05418   14  345  612.00000  526.97264  13.9%   162   40s
   567   285  568.23466   27  322  612.00000  526.97264  13.9%   176   45s
*  611   296              49     607.0000000  526.97264  13.2%   184   48s
   650   297  526.97264   20  392  607.00000  526.97264  13.2%   183   50s
   774   317  550.88030   34  330  607.00000  526.97264  13.2%   178   55s
   929   319  558.75076   20  346  607.00000  538.75766  11.2%   168   60s
H 1004   285                     602.0000000  542.52479  9.88%   165   62s
H 1032   266                     601.0000000  542.52479  9.73%   163   63s
  1069   267  568.32445   25  191  601.00000  542.72921  9.70%   163   65s
H 1088   243                     597.0000000  542.72921  9.09%   165   66s
  1236   267  548.72947   18  345  597.00000  545.61265  8.61%   159   70s
  1443   342  582.72948   34  165  597.00000  547.61619  8.27%   152   75s
  1621   392  585.45425   39  231  597.00000  548.62838  8.10%   151   80s
  1801   449  577.17391   32  151  597.00000  550.57185  7.78%   148   85s
  2008   481  583.89362   40  170  597.00000  551.28934  7.66%   146   90s
  2180   534  574.80769   25  176  597.00000  552.21084  7.50%   146   95s
  2383   567  590.96981   35  264  597.00000  553.52893  7.28%   143  100s
  2533   579     cutoff   27       597.00000  554.44290  7.13%   142  105s
  2699   621  583.49958   31  190  597.00000  556.21649  6.83%   143  110s
  2926   636     cutoff   31       597.00000  559.04535  6.36%   143  115s
  3133   671     cutoff   30       597.00000  560.25059  6.16%   143  120s
  3374   709  564.93952   37  282  597.00000  561.62185  5.93%   142  125s
  3498   731  576.58000   36  283  597.00000  561.92626  5.87%   142  130s
  3742   742  592.64340   50  236  597.00000  563.40758  5.63%   140  135s
  3998   748     cutoff   29       597.00000  564.59660  5.43%   138  140s
  4189   772  591.22421   27  233  597.00000  565.27819  5.31%   138  145s
  4421   775  593.50000   30  119  597.00000  566.38108  5.13%   137  150s
  4646   778  587.86187   27  292  597.00000  567.63918  4.92%   136  155s
  4903   777  576.56157   28  356  597.00000  568.91089  4.71%   135  160s
  5111   768  572.25027   33  334  597.00000  569.66716  4.58%   135  165s
  5326   758  591.02086   33  256  597.00000  570.42562  4.45%   135  170s
  5541   754  575.52718   34  329  597.00000  571.41454  4.29%   135  175s
  5658   754  595.72319   40  192  597.00000  571.78509  4.22%   135  180s
  5860   757     cutoff   24       597.00000  572.51602  4.10%   135  185s
  6095   746  595.61376   35  302  597.00000  573.45455  3.94%   134  190s
  6391   723  592.92157   41  158  597.00000  575.72541  3.56%   133  195s
  6541   707  594.56444   34  210  597.00000  576.93385  3.36%   132  200s
  6798   682     cutoff   35       597.00000  578.34068  3.13%   131  205s
  7132   606  584.85831   46  248  597.00000  580.73832  2.72%   130  210s
  7462   518     cutoff   42       597.00000  583.00000  2.35%   128  215s
  7793   381  592.41767   33  224  597.00000  585.54643  1.92%   126  220s
  8208   137     cutoff   27       597.00000  590.76449  1.04%   124  225s

Cutting planes:
  Gomory: 5
  MIR: 27
  StrongCG: 1
  Flow cover: 20
  Inf proof: 46
  Zero half: 65
  RLT: 1

Explored 8370 nodes (1035748 simplex iterations) in 226.07 seconds
Thread count was 1 (of 40 available processors)

Solution count 7: 597 601 602 ... 671

Optimal solution found (tolerance 1.00e-04)
Best objective 5.970000000000e+02, best bound 5.970000000000e+02, gap 0.0000%

User-callback calls 41783, time in user-callback 0.06 sec
